R = 4;
RotationPara = array2d(0..7, 0..7,[
  6, 7, 1, 0, 2, 3, 4, 5, 
  4, 5, 0, 1, 7, 6, 2, 3,
  3, 2, 4, 5, 6, 7, 0, 1,
  2, 3, 6, 7, 0, 1, 5, 4,
  3, 2, 4, 5, 6, 7, 0, 1,
  2, 3, 6, 7, 0, 1, 5, 4,
  6, 7, 1, 0, 2, 3, 4, 5, 
  4, 5, 0, 1, 7, 6, 2, 3
]);
